c Generated map
c Size: 8 * 8, weights in range: 1 to 10, walls: True, with ratio 0.1
c dim 4 of 9
c
p sp 64 91
c graph contains 64 nodes and 91 arcs
c
a 1 9 6
a 9 1 6
a 1 2 8
a 2 1 8
a 2 10 6
a 10 2 6
a 2 3 4
a 3 2 4
a 3 11 8
a 11 3 8
a 3 4 6
a 4 3 6
a 4 12 10
a 12 4 10
a 4 5 1
a 5 4 1
a 5 13 7
a 13 5 7
a 5 6 7
a 6 5 7
a 6 14 5
a 14 6 5
a 8 16 4
a 16 8 4
a 9 17 2
a 17 9 2
a 9 10 8
a 10 9 8
a 10 18 9
a 18 10 9
a 10 11 1
a 11 10 1
a 11 19 1
a 19 11 1
a 11 12 7
a 12 11 7
a 12 20 2
a 20 12 2
a 12 13 10
a 13 12 10
a 13 21 2
a 21 13 2
a 13 14 9
a 14 13 9
a 14 22 10
a 22 14 10
a 14 15 7
a 15 14 7
a 15 23 6
a 23 15 6
a 15 16 8
a 16 15 8
a 16 24 9
a 24 16 9
a 17 25 6
a 25 17 6
a 17 18 1
a 18 17 1
a 18 26 6
a 26 18 6
a 18 19 5
a 19 18 5
a 19 20 6
a 20 19 6
a 20 28 8
a 28 20 8
a 20 21 9
a 21 20 9
a 21 29 2
a 29 21 2
a 21 22 3
a 22 21 3
a 22 30 8
a 30 22 8
a 22 23 3
a 23 22 3
a 23 31 4
a 31 23 4
a 23 24 7
a 24 23 7
a 25 33 1
a 33 25 1
a 25 26 1
a 26 25 1
a 28 36 3
a 36 28 3
a 28 29 7
a 29 28 7
a 29 37 2
a 37 29 2
a 29 30 9
a 30 29 9
a 30 38 6
a 38 30 6
a 30 31 1
a 31 30 1
a 31 39 4
a 39 31 4
a 33 41 2
a 41 33 2
a 35 36 9
a 36 35 9
a 36 44 5
a 44 36 5
a 36 37 9
a 37 36 9
a 37 45 5
a 45 37 5
a 37 38 9
a 38 37 9
a 38 46 8
a 46 38 8
a 38 39 2
a 39 38 2
a 39 47 3
a 47 39 3
a 39 40 3
a 40 39 3
a 40 48 4
a 48 40 4
a 41 49 5
a 49 41 5
a 41 42 2
a 42 41 2
a 42 50 4
a 50 42 4
a 44 52 3
a 52 44 3
a 44 45 6
a 45 44 6
a 45 53 9
a 53 45 9
a 45 46 8
a 46 45 8
a 46 54 6
a 54 46 6
a 46 47 5
a 47 46 5
a 47 55 4
a 55 47 4
a 47 48 1
a 48 47 1
a 48 56 10
a 56 48 10
a 49 57 4
a 57 49 4
a 49 50 10
a 50 49 10
a 50 51 8
a 51 50 8
a 51 59 1
a 59 51 1
a 51 52 10
a 52 51 10
a 52 60 2
a 60 52 2
a 52 53 7
a 53 52 7
a 53 61 4
a 61 53 4
a 53 54 10
a 54 53 10
a 54 62 2
a 62 54 2
a 54 55 1
a 55 54 1
a 55 63 5
a 63 55 5
a 55 56 6
a 56 55 6
a 56 64 1
a 64 56 1
a 59 60 4
a 60 59 4
a 60 61 7
a 61 60 7
a 61 62 3
a 62 61 3
a 62 63 1
a 63 62 1
a 63 64 7
a 64 63 7
